NAME : GeneratedInstance
TYPE : TSP
DIMENSION : 25
EDGE_WEIGHT_TYPE : EUC_2D
NODE_COORD_SECTION
1 92.100530 70.173555
2 29.551575 55.914013
3 5.451029 47.226425
4 57.744388 24.566184
5 96.460281 97.558357
6 97.603243 44.199018
7 38.679045 64.113309
8 68.510764 99.218869
9 0.550043 12.619447
10 6.405439 38.997450
11 33.911201 84.204646
12 17.572516 26.148260
13 50.947876 37.833226
14 98.050526 77.797664
15 43.228764 81.099596
16 9.503717 30.430820
17 85.272017 54.896433
18 21.489736 91.260509
19 97.608689 71.093894
20 69.748640 85.114826
21 30.303120 11.883187
22 57.894912 19.640297
23 11.876230 56.939181
24 53.409429 72.975707
25 72.679203 87.834279
EOF
